Route #1: 1 25 16 31 21 33 19 23 24 1
Route #2: 1 27 12 7 37 2 22 18 1
Route #3: 1 14 4 39 6 1
Route #4: 1 3 34 20 5 17 35 1
Route #5: 1 11 28 8 9 36 26 15 32 38 13 1
Route #6: 1 30 29 10 1
cost 1010.1636219941737
